20 5
 0 34  1  5  2 86  3 28  4  8 
 0 20  1 48  2 35  3 39  4 91 
 0 57  1 80  2  5  3 55  4 45 
 0 47  1 43  2 93  3 21  4 55 
 0 62  1 34  2 74  3 25  4 75 
 0 40  1  2  2 12  3 88  4 18 
 0 74  1 87  2 40  3 59  4 59 
 0 94  1 68  2 95  3 40  4 86 
 0  9  1 28  2 80  3 90  4 45 
 0 62  1 84  2  6  3 18  4 89 
 0 86  1 30  2 92  3 33  4 11 
 0 13  1 35  2 14  3 10  4 54 
 0 78  1 42  2 83  3 59  4 38 
 0 46  1 39  2 49  3 92  4 41 
 0 83  1 85  2 36  3 15  4 64 
 0 52  1 34  2 38  3 77  4 98 
 0 13  1 36  2 43  3 31  4 83 
 0 70  1  9  2 89  3 85  4 36 
 0 40  1 96  2 94  3 85  4 61 
 0 60  1 84  2 33  3 99  4 19 
